N = 8;
H = 5;
T = 2;

avail = array3d(1..N, 1..H, 1..T, [6, 7, 1, 0, 1, 2, 5, 8, 8, 0, 2, 5, 9, 6, 8, 8, 7, 8, 1, 9, 5, 1, 10, 2, 1, 4, 2, 4, 9, 3, 0, 8, 2, 6, 0, 4, 1, 7, 5, 7, 8, 0, 1, 7, 9, 1, 8, 10, 3, 3, 0, 7, 3, 5, 5, 6, 8, 4, 8, 1, 1, 3, 1, 9, 3, 4, 1, 3, 4, 0, 0, 0, 3, 4, 9, 1, 2, 1, 8, 10]);

r = array2d(1..H, 1..T, [3, 1, 2, 1, 2, 2, 2, 1, 1, 1]);
